12 
1 153 510 706 966 581 455 70 160 372 664 46 
153 1 422 664 997 598 507 197 311 479 197 23 
510 422 1 289 744 390 437 491 645 880 581 75 
706 664 289 1 491 265 410 664 804 1070 706 325 
966 997 744 491 1 400 514 902 990 1261 410 32 
581 598 390 265 400 1 168 522 634 910 400 124 
455 507 437 410 514 168 1 389 482 757 902 32 
70 197 491 664 902 522 389 1 154 406 507 235 
160 311 645 804 990 634 482 154 1 276 390 123 
372 479 880 1070 1261 910 757 406 276 1 1261 24 
966 997 744 491 400 514 902 990 1261 154 1 32 
966 997 744 491 400 514 902 990 1261 154 1261 1 